WARNING: for repeatability, setting FPU to use double precision
============================[ Problem Statistics ]=============================
|                                                                             |
|  Number of variables:            50                                         |
|  Number of clauses:             218                                         |
|  Parse time:                   0.00 s                                       |
|                                                                             |
============================[ Search Statistics ]==============================
| Conflicts |          ORIGINAL         |          LEARNT          | Progress |
|           |    Vars  Clauses Literals |    Limit  Clauses Lit/Cl |          |
===============================================================================
===============================================================================
restarts              : 1
conflicts             : 28             (20202 /sec)
decisions             : 46             (0.00 % random) (33189 /sec)
propagations          : 416            (300144 /sec)
conflict literals     : 143            (6.54 % deleted)
Memory used           : 20.00 MB
CPU time              : 0.001386 s

SATISFIABLE
